SYSTEM = mace_al_bafeF4_full
ENCUT = 360
EDIFF = 1E-4
NELM = 40
NSW = 0
IBRION = -1
ISMEAR = 0
SIGMA = 0.05
LWAVE = .FALSE.
LCHARG = .FALSE.
PREC = Normal
ALGO = Fast

