SYSTEM = mace_al_smoke
ENCUT = 400
EDIFF = 1E-5
NSW = 0
IBRION = -1
ISMEAR = 0
SIGMA = 0.05
LWAVE = .FALSE.
LCHARG = .FALSE.

