SYSTEM = mace_al_al_smoke
ENCUT = 240
EDIFF = 1E-4
NELM = 20
NSW = 0
IBRION = -1
ISMEAR = 1
SIGMA = 0.2
LWAVE = .FALSE.
LCHARG = .FALSE.
PREC = Low
ALGO = Fast

